p tw 102 117
1 2
2 15
3 6
4 5
6 7
7 8
8 9
9 10
10 11
11 12
12 13
13 14
13 17
14 16
15 26
16 7
17 18
18 19
19 20
20 21
21 22
21 24
22 23
23 29
24 25
25 27
26 37
26 81
27 28
27 29
28 29
29 30
30 31
30 50
31 32
32 33
33 34
34 35
34 50
35 36
36 38
37 48
38 39
39 40
40 41
41 42
42 43
42 46
43 44
44 45
45 50
46 47
47 49
48 59
48 81
49 50
50 51
51 52
51 53
52 53
53 54
54 55
55 56
56 57
57 58
58 60
59 70
60 61
60 97
61 62
62 63
63 64
64 65
64 97
65 66
66 67
67 68
68 69
69 71
69 74
70 81
70 3
71 72
72 73
73 74
74 75
75 76
76 77
76 79
77 78
78 82
79 80
80 82
81 92
82 83
83 84
84 85
85 86
86 87
86 97
87 88
88 89
89 90
90 91
91 93
92 3
93 94
94 95
95 96
96 56
97 98
98 99
98 101
99 100
100 101
101 102
102 4
